62 66 69 23 14 3 19 65 72 74 48 6 28 59 61 
75 45 
9 8 68 37 40 42 36 57 51 12 2 46 
18 15 21 52 67 38 53 27 70 4 39 50 
29 7 22 73 58 16 31 
44 11 32 43 30 25 
13 1 49 5 24 56 
35 54 64 41 60 34 10 55 26 71 47 20 63 17 33 
